Set parameter Username
Academic license - for non-commercial use only - expires 2022-10-14
Solving optimization problem
Gurobi Optimizer version 9.5.0 build v9.5.0rc5 (linux64)
Thread count: 28 physical cores, 56 logical processors, using up to 28 threads
Optimize a model with 65233 rows, 7492 columns and 135359 nonzeros
Model fingerprint: 0x9d8c904a
Model has 18210 general constraints
Variable types: 0 continuous, 7492 integer (6810 binary)
Coefficient statistics:
  Matrix range     [1e+00, 1e+00]
  Objective range  [1e+00, 1e+00]
  Bounds range     [1e+00, 1e+00]
  RHS range        [1e+00, 9e+00]
  GenCon rhs range [1e+00, 9e+00]
  GenCon coe range [1e+00, 1e+00]
Presolve removed 7621 rows and 121 columns
Presolve time: 0.03s

Explored 0 nodes (0 simplex iterations) in 0.03 seconds (0.03 work units)
Thread count was 1 (of 56 available processors)

Solution count 0

Model is infeasible
Best objective -, best bound -, gap -
Sad
